Name: Ing0607-2
Courses: 131
Rooms: 20
Days: 5
Periods_per_day: 5
Curricula: 77
Min_Max_Daily_Lectures: 2 4
UnavailabilityConstraints: 667
RoomConstraints: 308

COURSES:
c0007 t000 3 3 12 0
c0009 t001 3 3 16 0
c0015 t002 3 3 15 0
c0019 t003 3 3 31 0
c0020 t004 3 3 12 0
c0023 t005 3 3 111 0
c0024 t006 3 3 38 0
c0044 t007 3 3 110 0
c0047 t008 3 3 100 0
c0049 t009 3 3 55 0
c0053 t010 3 3 60 0
c0056 t011 3 3 110 0
c0058 t012 3 3 100 0
c0061 t013 3 3 55 0
c0062 t014 3 3 55 0
c0069 t010 3 3 110 0
c0072 t015 3 2 127 1
c0074 t016 3 1 13 1
c0088 t017 5 4 85 1
c0095 t018 3 3 90 0
c0103 t019 3 3 80 0
c0106 t020 3 3 147 0
c0108 t021 3 3 90 0
c0110 t012 3 3 160 0
c0113 t022 3 3 125 0
c0115 t023 3 3 136 0
c0118 t024 3 3 33 0
c0127 t025 3 3 90 0
c0129 t026 3 3 105 0
c0131 t027 3 2 105 0
c0132 t027 3 2 105 1
c0133 t028 5 1 100 1
c0152 t029 3 3 105 0
c0153 t030 3 2 105 1
c0162 t031 3 3 102 0
c0178 t032 3 3 90 0
c0191 t033 3 2 80 0
c0193 t034 3 3 106 0
c0195 t011 3 3 90 0
c0201 t035 3 2 105 1
c0203 t029 3 3 75 0
c0206 t036 3 3 90 0
c0211 t037 3 3 130 0
c0213 t038 3 3 130 0
c0217 t001 3 3 98 0
c0219 t039 3 3 83 0
c0221 t031 3 3 98 0
c0225 t040 3 3 83 0
c0230 t041 3 3 113 0
c0232 t042 3 3 50 0
c0238 t043 3 3 130 0
c0252 t044 3 3 120 0
c0253 t045 3 3 85 0
c0257 t046 3 3 157 0
c0279 t047 3 3 105 0
c0411 t048 3 3 57 0
c0412 t049 3 3 20 0
c0423 t048 3 3 40 0
c0428 t030 3 3 20 0
c0430 t041 3 3 68 0
c0432 t050 3 3 40 0
c0443 t051 3 3 20 0
c0444 t052 3 3 20 0
c0449 t045 3 3 20 0
c0455 t053 3 3 65 0
c0464 t054 3 2 65 1
c0467 t055 3 3 15 0
c0478 t030 3 2 53 0
c0479 t009 3 3 37 0
c0487 t056 3 3 38 0
c0489 t057 3 3 23 0
c0496 t058 3 3 31 0
c0497 t059 3 3 15 0
c0503 t060 3 3 31 0
c0504 t061 3 3 15 0
c0512 t062 3 3 69 0
c0515 t063 4 3 99 0
c0520 t020 3 3 112 0
c0526 t022 3 3 26 0
c0530 t062 3 3 28 0
c0532 t064 3 3 26 0
c0534 t065 3 3 15 0
c0535 t066 3 3 15 0
c0537 t067 3 3 15 0
c0538 t067 3 3 15 0
c0539 t068 3 3 15 0
c0554 t030 3 3 4 0
c0602 t069 3 3 41 0
c0722 t070 3 3 80 0
c0723 t071 3 3 10 0
c0725 t068 3 3 69 0
c0730 t008 3 3 8 0
c0737 t034 3 3 37 0
c0742 t072 3 3 35 0
c0746 t058 3 3 100 0
c0789 t073 3 3 12 0
c0794 t074 3 3 8 0
c0795 t073 3 3 23 0
c0804 t075 3 3 8 0
c0807 t076 3 3 8 0
c0808 t077 3 3 24 0
c0812 t078 3 3 17 0
c0813 t078 3 3 17 0
c0822 t079 3 3 4 0
c0835 t003 3 3 25 0
c0847 t080 3 3 60 0
c0849 t081 3 2 20 1
c0860 t039 7 2 10 1
c0862 t080 7 2 5 1
c0883 t082 7 2 10 1
c0897 t083 3 3 51 0
c1005 t084 3 2 67 1
c0932 t085 3 3 90 0
c0936 t070 3 3 41 0
c1022 t014 3 3 8 0
c0955 t086 7 2 40 1
c0963 t087 7 2 55 1
c0975 t088 7 2 15 1
c0980 t089 7 2 60 1
c0983 t090 7 2 50 1
c0998 t091 3 3 87 0
c1041 t092 3 3 160 0
c1053 t093 3 2 23 0
c1062 t094 3 3 40 0
c1064 t095 7 2 5 1
c1065 t029 3 3 20 0
c1066 t096 3 3 20 0
c1069 t059 3 3 20 0
c1072 t097 3 3 60 0
c1074 t098 3 3 20 0
c1077 t066 3 3 44 0

ROOMS:
r25 40 0
r36 42 1
r37 42 0
r38 48 1
r34 50 0
r27 65 1
r51 78 0
rB 216 1
rD 216 1
rF 216 1
rG 216 1
rA 312 0
rL 336 0
r50 75 0
r52 60 0
rDS1 100 1
rDS2 60 1
rN 30 0
rEr1 70 1
rEr2 70 1

CURRICULA:
q000 3 c0095 c0108 c0127 
q001 4 c0103 c0110 c0113 c0722 
q002 4 c0106 c0115 c0118 c0998 
q003 4 c0106 c0115 c0998 c1077 
q005 4 c0106 c0115 c0723 c0998 
q006 3 c0211 c0213 c0238 
q007 4 c0007 c0009 c0230 c0023 
q008 3 c0230 c0023 c0217 
q009 3 c0009 c0023 c0019 
q010 4 c0015 c0019 c0020 c0024 
q011 4 c0019 c0088 c0221 c0253 
q012 4 c0015 c0795 c0897 c0230 
q013 3 c0044 c0056 c0069 
q014 4 c0047 c0053 c0058 c0746 
q015 4 c0049 c0061 c0062 c0742 
q016 4 c0049 c0061 c0062 c0074 
q017 4 c0049 c0061 c0062 c1069 
q018 4 c0049 c0061 c0062 c0072 
q020 4 c0217 c0219 c0023 c0230 
q021 4 c0217 c0219 c0230 c0897 
q022 4 c0221 c0225 c0232 c0088 
q023 4 c0221 c0225 c0253 c0932 
q024 2 c0225 c0221 
q025 3 c0178 c0195 c0206 
q026 4 c0252 c0191 c0110 c0193 
q027 4 c0257 c0515 c0201 c0203 
q028 4 c0257 c0515 c0201 c0467 
q029 4 c0257 c0515 c0201 c0106 
q030 4 c0129 c0131 c0152 c0975 
q031 4 c0129 c0131 c0152 c0955 
q032 4 c0129 c0131 c0152 c0983 
q033 4 c0132 c0133 c0153 c0883 
q034 4 c0132 c0133 c0153 c0980 
q035 4 c0132 c0153 c0897 c0963 
q036 4 c0132 c0133 c0153 c0963 
q037 2 c0162 c1041 
q038 1 c0162 
q041 4 c0252 c0058 c0047 c0746 
q042 4 c0257 c0201 c0072 c0203 
q043 3 c0257 c0201 c0072 
q044 4 c0257 c0201 c0072 c0279 
q045 4 c0455 c0478 c0602 c0503 
q046 5 c0455 c0478 c0602 c0503 c0279 
q047 4 c0115 c0279 c0455 c0106 
q048 4 c0115 c0279 c0455 c0467 
q049 3 c0464 c0496 c0279 
q050 3 c0464 c0489 c0496 
q051 4 c0464 c0072 c0520 c0113 
q052 2 c0464 c0554 
q053 5 c0411 c0412 c0088 c0932 c1074 
q054 6 c0411 c0932 c0432 c0232 c0088 c0443 
q055 5 c0423 c0428 c0430 c0253 c0432 
q056 4 c0444 c0423 c0430 c0449 
q057 3 c0478 c0479 c0074 
q058 4 c0478 c0479 c0497 c1069 
q059 4 c0478 c0479 c0072 c0737 
q060 5 c0487 c0737 c0489 c0730 c1053 
q061 5 c0487 c0737 c0496 c1053 c0279 
q062 4 c0487 c0504 c0503 c0279 
q063 5 c0512 c0725 c0193 c0515 c0936 
q064 4 c0512 c0725 c0430 c0530 
q065 5 c0512 c0725 c0535 c0539 c0936 
q066 5 c0520 c1005 c0072 c0257 c0526 
q067 5 c0520 c1005 c0257 c0024 c0532 
q068 5 c0520 c1005 c0534 c0537 c0538 
q069 6 c0602 c0794 c0795 c0467 c0835 c1022 
q070 5 c0602 c0812 c0813 c0411 c0835 
q071 6 c0602 c0795 c0411 c0812 c0813 c0835 
q072 3 c0804 c0807 c0808 
q073 2 c0808 c0822 
q074 2 c0789 c0808 
q075 5 c0847 c0980 c0897 c1072 c1041 
q076 5 c0847 c1062 c0897 c1072 c1041 
q077 5 c0847 c1062 c1066 c1072 c1041 
q078 3 c0849 c0862 c1065 
q079 3 c0849 c0860 c1065 
q080 3 c0849 c1064 c1065 

UNAVAILABILITY_CONSTRAINTS:
c0007 0 0 
c0007 0 4 
c0007 1 0 
c0007 1 4 
c0007 2 0 
c0007 2 4 
c0007 3 0 
c0007 4 0 
c0015 0 0 
c0015 0 2 
c0015 1 0 
c0015 1 2 
c0015 2 0 
c0015 2 2 
c0015 3 2 
c0015 4 2 
c0019 0 0 
c0019 0 1 
c0019 0 2 
c0019 0 3 
c0019 0 4 
c0019 1 0 
c0019 2 0 
c0019 3 0 
c0020 0 0 
c0020 0 1 
c0020 1 0 
c0020 2 0 
c0020 3 0 
c0020 4 0 
c0020 4 2 
c0020 4 3 
c0020 4 4 
c0023 0 0 
c0023 0 1 
c0023 0 2 
c0023 0 3 
c0023 0 4 
c0023 1 0 
c0023 1 1 
c0023 1 2 
c0023 4 2 
c0023 4 3 
c0023 4 4 
c0024 0 0 
c0024 0 1 
c0024 0 2 
c0024 1 0 
c0024 2 0 
c0024 3 0 
c0024 4 0 
c0024 4 4 
c0044 0 0 
c0044 0 1 
c0044 3 4 
c0044 4 0 
c0044 4 1 
c0044 4 2 
c0044 4 3 
c0044 4 4 
c0047 0 0 
c0047 0 1 
c0047 0 2 
c0047 0 3 
c0047 0 4 
c0047 4 2 
c0047 4 3 
c0047 4 4 
c0049 0 0 
c0049 0 1 
c0049 0 2 
c0049 4 0 
c0049 4 1 
c0049 4 2 
c0049 4 3 
c0049 4 4 
c0053 1 2 
c0053 1 3 
c0053 1 4 
c0053 4 0 
c0053 4 1 
c0053 4 2 
c0053 4 3 
c0053 4 4 
c0056 0 2 
c0056 0 3 
c0056 0 4 
c0056 1 2 
c0056 1 3 
c0056 1 4 
c0056 2 2 
c0056 2 3 
c0056 2 4 
c0056 3 2 
c0056 3 3 
c0056 3 4 
c0056 4 2 
c0056 4 3 
c0056 4 4 
c0058 0 0 
c0058 1 0 
c0058 2 0 
c0058 2 2 
c0058 2 3 
c0058 2 4 
c0058 3 0 
c0058 3 1 
c0058 3 2 
c0058 3 3 
c0058 3 4 
c0061 0 0 
c0061 1 0 
c0061 3 0 
c0061 4 0 
c0061 4 1 
c0061 4 2 
c0061 4 3 
c0061 4 4 
c0062 0 0 
c0062 0 1 
c0062 1 0 
c0062 4 0 
c0062 4 1 
c0062 4 2 
c0062 4 3 
c0062 4 4 
c0069 1 2 
c0069 1 3 
c0069 1 4 
c0069 4 0 
c0069 4 1 
c0069 4 2 
c0069 4 3 
c0069 4 4 
c0072 0 0 
c0072 0 1 
c0072 0 2 
c0072 0 3 
c0072 0 4 
c0072 4 0 
c0072 4 1 
c0072 4 2 
c0072 4 3 
c0072 4 4 
c0088 0 0 
c0088 0 2 
c0088 1 2 
c0088 2 2 
c0088 3 2 
c0088 3 4 
c0088 4 2 
c0088 4 4 
c0095 3 0 
c0095 3 1 
c0095 3 2 
c0095 3 3 
c0095 3 4 
c0095 4 0 
c0095 4 1 
c0095 4 2 
c0095 4 3 
c0095 4 4 
c0103 1 4 
c0103 2 4 
c0103 3 4 
c0103 4 0 
c0103 4 1 
c0103 4 2 
c0103 4 3 
c0103 4 4 
c0110 0 0 
c0110 1 0 
c0110 2 0 
c0110 2 2 
c0110 2 3 
c0110 2 4 
c0110 3 0 
c0110 3 1 
c0110 3 2 
c0110 3 3 
c0110 3 4 
c0113 4 0 
c0113 4 1 
c0113 4 2 
c0113 4 3 
c0113 4 4 
c0115 1 2 
c0115 1 3 
c0115 1 4 
c0115 2 2 
c0115 2 3 
c0115 2 4 
c0118 1 0 
c0118 1 1 
c0118 1 2 
c0118 1 3 
c0118 1 4 
c0118 4 2 
c0118 4 3 
c0118 4 4 
c0129 3 2 
c0129 4 2 
c0129 4 4 
c0131 2 0 
c0131 2 1 
c0131 2 2 
c0131 2 3 
c0131 2 4 
c0131 3 2 
c0131 4 2 
c0131 4 4 
c0132 0 2 
c0132 1 2 
c0132 1 4 
c0132 3 2 
c0132 3 3 
c0132 3 4 
c0132 4 0 
c0132 4 1 
c0132 4 2 
c0132 4 3 
c0132 4 4 
c0133 0 2 
c0133 1 2 
c0133 1 4 
c0133 2 0 
c0133 2 1 
c0133 2 2 
c0133 2 3 
c0133 2 4 
c0133 3 1 
c0133 3 2 
c0133 3 3 
c0152 0 0 
c0152 0 1 
c0152 0 2 
c0152 3 2 
c0152 4 0 
c0152 4 1 
c0152 4 2 
c0152 4 3 
c0152 4 4 
c0153 0 2 
c0153 1 2 
c0153 1 4 
c0153 2 2 
c0153 2 3 
c0153 2 4 
c0153 3 2 
c0153 4 2 
c0162 1 0 
c0162 1 1 
c0162 1 2 
c0178 0 0 
c0178 0 2 
c0178 0 3 
c0178 0 4 
c0178 1 2 
c0178 2 2 
c0178 4 2 
c0191 0 0 
c0191 0 1 
c0191 4 0 
c0191 4 1 
c0191 4 2 
c0191 4 3 
c0191 4 4 
c0193 1 0 
c0193 2 0 
c0193 2 1 
c0193 2 2 
c0193 2 3 
c0193 2 4 
c0193 3 3 
c0193 3 4 
c0195 0 2 
c0195 0 3 
c0195 0 4 
c0195 1 2 
c0195 1 3 
c0195 1 4 
c0195 2 2 
c0195 2 3 
c0195 2 4 
c0195 3 2 
c0195 3 3 
c0195 3 4 
c0195 4 2 
c0195 4 3 
c0195 4 4 
c0203 0 0 
c0203 0 1 
c0203 0 2 
c0203 4 0 
c0203 4 1 
c0203 4 2 
c0203 4 3 
c0203 4 4 
c0211 0 2 
c0211 0 3 
c0211 1 2 
c0211 1 3 
c0211 2 2 
c0211 3 2 
c0211 3 3 
c0211 4 2 
c0213 0 0 
c0213 0 1 
c0213 0 2 
c0213 0 3 
c0213 0 4 
c0213 4 3 
c0213 4 4 
c0219 4 4 
c0230 0 0 
c0230 0 2 
c0230 1 2 
c0230 2 2 
c0230 3 2 
c0230 4 2 
c0230 4 3 
c0230 4 4 
c0232 0 2 
c0232 1 2 
c0232 2 2 
c0232 3 2 
c0232 4 2 
c0238 0 2 
c0238 0 3 
c0238 1 2 
c0238 1 3 
c0238 2 2 
c0238 2 3 
c0238 3 2 
c0238 3 3 
c0238 4 2 
c0238 4 3 
c0252 0 0 
c0252 1 0 
c0252 2 0 
c0252 2 2 
c0252 2 3 
c0252 2 4 
c0252 3 0 
c0252 4 0 
c0252 4 4 
c0253 0 0 
c0253 0 1 
c0253 0 2 
c0253 4 0 
c0253 4 1 
c0253 4 2 
c0253 4 3 
c0253 4 4 
c0257 0 0 
c0257 0 1 
c0257 0 2 
c0257 0 3 
c0257 0 4 
c0257 4 0 
c0257 4 1 
c0257 4 2 
c0257 4 3 
c0257 4 4 
c0279 0 4 
c0279 1 4 
c0279 2 4 
c0279 3 4 
c0279 4 4 
c0411 1 0 
c0411 1 1 
c0411 1 2 
c0411 1 3 
c0411 1 4 
c0411 4 4 
c0412 2 3 
c0412 2 4 
c0412 3 1 
c0412 3 2 
c0412 3 4 
c0412 4 1 
c0412 4 2 
c0412 4 4 
c0430 0 0 
c0430 0 2 
c0430 1 2 
c0430 2 2 
c0430 3 2 
c0430 4 2 
c0430 4 3 
c0430 4 4 
c0432 0 2 
c0432 1 2 
c0432 3 0 
c0432 3 1 
c0432 3 2 
c0432 4 0 
c0432 4 1 
c0432 4 2 
c0449 0 0 
c0449 0 1 
c0449 0 2 
c0449 4 0 
c0449 4 1 
c0449 4 2 
c0449 4 3 
c0449 4 4 
c0479 0 0 
c0479 0 1 
c0479 0 2 
c0479 4 0 
c0479 4 1 
c0479 4 2 
c0479 4 3 
c0479 4 4 
c0487 0 0 
c0487 0 1 
c0487 0 2 
c0487 0 3 
c0487 0 4 
c0487 4 2 
c0487 4 3 
c0487 4 4 
c0497 4 3 
c0497 4 4 
c0512 3 4 
c0515 0 3 
c0515 0 4 
c0515 1 3 
c0515 1 4 
c0515 2 2 
c0515 2 3 
c0515 2 4 
c0515 3 3 
c0515 3 4 
c0515 4 2 
c0515 4 3 
c0515 4 4 
c0530 3 4 
c0532 1 2 
c0532 1 3 
c0532 1 4 
c0532 2 2 
c0532 2 3 
c0532 2 4 
c0532 3 2 
c0532 4 2 
c0534 0 0 
c0534 0 1 
c0534 0 2 
c0534 0 3 
c0534 4 0 
c0534 4 1 
c0534 4 2 
c0534 4 3 
c0539 0 2 
c0539 1 2 
c0539 2 2 
c0539 3 2 
c0539 4 2 
c0554 0 0 
c0554 0 1 
c0554 1 0 
c0554 2 0 
c0554 3 0 
c0554 4 0 
c0554 4 2 
c0554 4 3 
c0554 4 4 
c0602 0 0 
c0602 1 0 
c0602 2 0 
c0602 3 0 
c0602 4 0 
c0722 0 0 
c0722 0 1 
c0722 0 3 
c0722 0 4 
c0722 2 0 
c0722 2 1 
c0722 2 3 
c0723 0 3 
c0723 0 4 
c0723 1 0 
c0723 1 1 
c0723 1 2 
c0723 1 3 
c0723 1 4 
c0723 2 3 
c0723 2 4 
c0723 4 4 
c0725 0 2 
c0725 1 2 
c0725 2 2 
c0725 3 2 
c0725 4 2 
c0730 0 0 
c0730 0 1 
c0730 0 2 
c0730 0 3 
c0730 0 4 
c0730 4 2 
c0730 4 3 
c0730 4 4 
c0737 1 0 
c0737 2 0 
c0737 2 1 
c0737 2 2 
c0737 2 3 
c0737 2 4 
c0737 3 3 
c0737 3 4 
c0742 0 0 
c0742 0 1 
c0742 0 2 
c0742 0 3 
c0742 4 1 
c0742 4 2 
c0742 4 3 
c0742 4 4 
c0789 0 0 
c0789 0 1 
c0789 0 2 
c0789 2 0 
c0789 2 1 
c0789 2 2 
c0789 2 3 
c0789 2 4 
c0794 0 2 
c0794 1 2 
c0794 2 2 
c0794 3 2 
c0794 4 2 
c0794 4 4 
c0795 0 0 
c0795 0 1 
c0795 0 2 
c0795 2 0 
c0795 2 1 
c0795 2 2 
c0795 2 3 
c0795 2 4 
c0807 0 0 
c0807 0 4 
c0807 1 0 
c0807 1 4 
c0807 2 0 
c0807 2 4 
c0807 3 0 
c0807 4 0 
c0808 0 0 
c0808 0 2 
c0808 1 2 
c0808 2 2 
c0808 3 2 
c0808 4 0 
c0808 4 2 
c0808 4 4 
c0847 0 0 
c0847 0 1 
c0847 0 2 
c0847 0 3 
c0847 0 4 
c0847 1 0 
c0847 1 1 
c0847 1 2 
c0847 1 4 
c0849 2 0 
c0849 2 1 
c0849 2 2 
c0849 2 3 
c0849 2 4 
c0849 3 0 
c0849 3 1 
c0849 3 2 
c0849 3 3 
c0849 3 4 
c0849 4 2 
c0849 4 4 
c0862 0 0 
c0862 0 1 
c0862 0 2 
c0862 0 3 
c0862 0 4 
c0862 1 0 
c0862 1 1 
c0862 1 2 
c0897 0 2 
c0897 1 2 
c0897 4 0 
c0936 0 0 
c0936 0 1 
c0936 0 3 
c0936 0 4 
c0936 2 0 
c0936 2 1 
c0936 2 3 
c0936 2 4 
c1022 0 0 
c1022 0 1 
c1022 1 0 
c1022 4 0 
c1022 4 1 
c1022 4 2 
c1022 4 3 
c1022 4 4 
c0998 0 0 
c0998 0 1 
c0998 0 2 
c0998 0 3 
c0998 0 4 
c0998 4 2 
c0998 4 3 
c0998 4 4 
c1041 0 0 
c1041 0 1 
c1041 0 2 
c1041 1 0 
c1041 1 1 
c1041 1 2 
c1041 1 4 
c1041 2 0 
c1041 2 1 
c1041 2 2 
c1041 3 0 
c1041 3 1 
c1041 3 2 
c1041 4 0 
c1041 4 1 
c1041 4 2 
c1053 0 0 
c1053 0 1 
c1053 0 2 
c1053 0 3 
c1053 0 4 
c1053 3 0 
c1053 3 1 
c1053 3 2 
c1053 3 3 
c1053 3 4 
c1053 4 0 
c1053 4 1 
c1053 4 2 
c1053 4 3 
c1053 4 4 
c1065 0 0 
c1065 0 1 
c1065 0 2 
c1065 3 2 
c1065 4 0 
c1065 4 1 
c1065 4 2 
c1065 4 3 
c1065 4 4 
c1069 4 3 
c1069 4 4 
c1072 0 2 
c1072 1 2 
c1072 1 4 
c1074 0 0 
c1074 0 2 
c1074 1 2 
c1074 2 0 
c1074 2 2 
c1074 3 2 
c1074 4 0 
c1074 4 2 

ROOM_CONSTRAINTS:
c0007 rB
c0007 rDS1
c0009 rD
c0009 rDS1
c0015 r37
c0015 r50
c0015 rEr1
c0019 rN
c0020 rB
c0020 rDS1
c0023 r36
c0023 r34
c0023 rG
c0023 rL
c0024 r25
c0024 rG
c0044 r25
c0044 rB
c0044 r52
c0044 rDS1
c0044 rEr2
c0047 r25
c0047 rD
c0049 r25
c0049 r27
c0049 rG
c0053 rF
c0053 rG
c0056 r27
c0056 rA
c0056 rEr1
c0058 r36
c0058 r34
c0058 rB
c0058 r50
c0061 rA
c0061 rL
c0062 r34
c0062 rF
c0062 rEr2
c0069 r27
c0069 rB
c0069 rD
c0069 rF
c0069 rDS1
c0072 rB
c0072 rD
c0072 rN
c0074 r25
c0074 r38
c0088 r36
c0088 r51
c0088 rF
c0088 rL
c0095 r38
c0095 rB
c0095 rDS1
c0095 rN
c0103 r25
c0103 rD
c0103 rF
c0103 rG
c0103 rDS2
c0106 r36
c0106 rB
c0106 rD
c0106 rF
c0108 r52
c0110 r50
c0110 r52
c0110 rDS1
c0113 r36
c0113 r37
c0113 rN
c0115 rG
c0115 rEr1
c0118 r38
c0118 r50
c0118 rN
c0118 rEr1
c0127 r52
c0127 rDS2
c0129 rG
c0129 rA
c0132 r51
c0132 rF
c0132 r50
c0132 rDS1
c0133 r38
c0152 rD
c0153 r36
c0153 rD
c0153 rG
c0153 rEr1
c0162 r34
c0162 r52
c0162 rEr1
c0178 rD
c0178 rA
c0178 rEr2
c0191 rL
c0191 rDS1
c0193 r25
c0193 r36
c0193 r34
c0195 rL
c0201 rG
c0201 rL
c0203 r36
c0203 rB
c0203 r50
c0206 r51
c0206 rEr1
c0206 rEr2
c0211 rEr1
c0213 rL
c0213 rEr1
c0219 rB
c0219 rG
c0225 r38
c0225 rF
c0225 rG
c0225 rA
c0232 r25
c0232 r36
c0232 r38
c0232 rF
c0232 rDS2
c0232 rEr2
c0238 r34
c0238 rB
c0238 rA
c0238 rDS1
c0252 r51
c0252 rD
c0252 r50
c0252 rDS2
c0253 r25
c0253 r27
c0253 rG
c0279 r27
c0279 rEr2
c0411 r25
c0411 r38
c0411 rEr2
c0412 r36
c0412 r37
c0412 rL
c0423 rA
c0423 rEr1
c0428 rD
c0432 r51
c0432 rD
c0432 rG
c0432 rDS1
c0443 rF
c0443 rA
c0443 rDS1
c0443 rEr1
c0444 r36
c0444 rA
c0455 r50
c0455 rDS1
c0455 rEr2
c0464 r36
c0464 r37
c0464 rB
c0464 r52
c0467 r38
c0467 rF
c0479 rG
c0479 rL
c0487 r27
c0487 rEr1
c0489 r36
c0489 rEr1
c0496 r25
c0496 rA
c0496 rDS2
c0497 r38
c0497 rG
c0497 rDS2
c0497 rEr1
c0503 r36
c0503 rB
c0503 rF
c0503 r50
c0503 rN
c0503 rEr2
c0504 r36
c0504 rA
c0504 r52
c0504 rEr1
c0512 r25
c0512 r37
c0515 rG
c0515 rL
c0520 rL
c0526 r25
c0526 rF
c0526 rDS2
c0526 rEr2
c0530 rL
c0530 rN
c0532 r25
c0532 rA
c0534 rL
c0535 r34
c0537 r34
c0537 rD
c0537 r50
c0537 rDS1
c0538 r51
c0538 r50
c0539 r38
c0539 r51
c0539 rN
c0602 r38
c0602 r27
c0602 r51
c0722 r37
c0722 r51
c0725 r36
c0725 r38
c0725 r27
c0737 rA
c0737 rEr1
c0746 r50
c0746 rDS1
c0746 rEr1
c0789 rD
c0794 rG
c0794 rA
c0795 r36
c0795 r27
c0795 rF
c0795 rN
c0795 rEr1
c0807 r27
c0807 rG
c0807 rEr2
c0808 r38
c0808 r27
c0812 r25
c0812 r34
c0812 rF
c0812 r50
c0812 rDS1
c0812 rN
c0813 r38
c0813 r34
c0813 r51
c0813 rD
c0813 rG
c0822 r25
c0822 rB
c0822 rF
c0822 rN
c0835 r27
c0847 rF
c0849 r36
c0849 r34
c0860 rF
c0860 rN
c0862 r37
c0862 rEr2
c0883 rN
c0897 rB
c0897 rG
c1005 rB
c1005 rEr1
c0932 rG
c0932 rN
c0936 r36
c0936 rDS2
c1022 rDS2
c1022 rN
c1022 rEr1
c1022 rEr2
c0955 r36
c0955 r50
c0963 rG
c0963 rEr1
c0975 r51
c0980 rG
c0980 r52
c0980 rDS2
c0983 rN
c1041 r38
c1041 r27
c1041 r50
c1062 r36
c1062 r34
c1062 r52
c1064 rDS1
c1064 rDS2
c1066 rN
c1069 r36
c1069 r27
c1069 rG
c1069 rN
c1072 r34
c1072 rD
c1072 rF
c1072 rDS1
c1072 rEr2
c1074 rL
c1077 rG

END.
